data;
set K:= K1 K2 K3 K4 K5 K6 K7 K8 K9 K10 K11 K12 K13 K14 K15 ;

set F:= F1 F2 F3 ;

set Q:= Q1 Q2 ;

param T:= 45;
param V: 
	K1  K2  K3  K4  K5  K6  K7  K8  K9  K10 K11 K12 K13 K14 K15 :=
Q1	1   1   1   1   1   1   1   1   1   0   0   0   0   0   0   
Q2	0   0   0   0   0   0   0   0   0   1   1   1   1   1   1   
; # if resorce k is of type q

param TF:= 
K1 6
K2 6
K3 6
K4 6
K5 6
K6 6
K7 6
K8 6
K9 6
K10 12
K11 12
K12 12
K13 12
K14 12
K15 12
; # number of continuous time slots resource can fly

param TR:= 
K1 2
K2 2
K3 2
K4 2
K5 2
K6 2
K7 2
K8 2
K9 2
K10 4
K11 4
K12 4
K13 4
K14 4
K15 4
; #  number of continuous time slots resource k needs to rest between flights

param P:= 
K1 36
K2 36
K3 36
K4 36
K5 36
K6 36
K7 36
K8 36
K9 36
K10 36
K11 36
K12 36
K13 36
K14 36
K15 36
; #  number of continuous time slots a pilot can be present including rest times for resource k 

param N:= 
K1 4
K2 4
K3 4
K4 4
K5 4
K6 4
K7 4
K8 4
K9 4
K10 2
K11 2
K12 2
K13 2
K14 2
K15 2
; # max number of flights resource k can fly in the total time period

param A: 
	K1  K2  K3  K4  K5  K6  K7  K8  K9  K10 K11 K12 K13 K14 K15 :=
1	1   1   1   1   1   1   1   1   1   1   1   1   1   1   1   
2	1   1   1   1   1   1   1   1   1   1   1   1   1   1   1   
3	1   1   1   1   1   1   1   1   1   1   1   1   1   1   1   
4	1   1   1   1   1   1   1   1   1   1   1   1   1   1   1   
5	1   1   1   1   1   1   1   1   1   1   1   1   1   1   1   
6	1   1   1   1   1   1   1   1   1   1   1   1   1   1   1   
7	1   1   1   1   1   1   1   1   1   1   1   1   1   1   1   
8	1   1   1   1   1   1   1   1   1   1   1   1   1   1   1   
9	1   1   1   1   1   1   1   1   1   1   1   1   1   1   1   
10	1   1   1   1   1   1   1   1   1   1   1   1   1   1   1   
11	1   1   1   1   1   1   1   1   1   1   1   1   1   1   1   
12	1   1   1   1   1   1   1   1   1   1   1   1   1   1   1   
13	1   1   1   1   1   1   1   1   1   1   1   1   1   1   1   
14	1   1   1   1   1   1   1   1   1   1   1   1   1   1   1   
15	1   1   1   1   1   1   1   1   1   1   1   1   1   1   1   
16	1   1   1   1   1   1   1   1   1   1   1   1   1   1   1   
17	1   1   1   1   1   1   1   1   1   1   1   1   1   1   1   
18	1   1   1   1   1   1   1   1   1   1   1   1   1   1   1   
19	1   1   1   1   1   1   1   1   1   1   1   1   1   1   1   
20	1   1   1   1   1   1   1   1   1   1   1   1   1   1   1   
21	1   1   1   1   1   1   1   1   1   1   1   1   1   1   1   
22	1   1   1   1   1   1   1   1   1   1   1   1   1   1   1   
23	1   1   1   1   1   1   1   1   1   1   1   1   1   1   1   
24	1   1   1   1   1   1   1   1   1   1   1   1   1   1   1   
25	1   1   1   1   1   1   1   1   1   1   1   1   1   1   1   
26	1   1   1   1   1   1   1   1   1   1   1   1   1   1   1   
27	1   1   1   1   1   1   1   1   1   1   1   1   1   1   1   
28	1   1   1   1   1   1   1   1   1   1   1   1   1   1   1   
29	1   1   1   1   1   1   1   1   1   1   1   1   1   1   1   
30	1   1   1   1   1   1   1   1   1   1   1   1   1   1   1   
31	1   1   1   1   1   1   1   1   1   1   1   1   1   1   1   
32	1   1   1   1   1   1   1   1   1   1   1   1   1   1   1   
33	1   1   1   1   1   1   1   1   1   1   1   1   1   1   1   
34	1   1   1   1   1   1   1   1   1   1   1   1   1   1   1   
35	1   1   1   1   1   1   1   1   1   1   1   1   1   1   1   
36	1   1   1   1   1   1   1   1   1   1   1   1   1   1   1   
37	1   1   1   1   1   1   1   1   1   1   1   1   1   1   1   
38	1   1   1   1   1   1   1   1   1   1   1   1   1   1   1   
39	1   1   1   1   1   1   1   1   1   1   1   1   1   1   1   
40	1   1   1   1   1   1   1   1   1   1   1   1   1   1   1   
41	1   1   1   1   1   1   1   1   1   1   1   1   1   1   1   
42	1   1   1   1   1   1   1   1   1   1   1   1   1   1   1   
43	1   1   1   1   1   1   1   1   1   1   1   1   1   1   1   
44	1   1   1   1   1   1   1   1   1   1   1   1   1   1   1   
45	1   1   1   1   1   1   1   1   1   1   1   1   1   1   1   
; # availability of resorce k in time slot t

param B: 
	F1  F2  F3  :=
Q1	0   1   0   
Q2	0   0   0   
; # if front f requires resources of type q

param U: 
	F1  F2  F3  :=
K1	0   0   0   
K2	0   0   0   
K3	0   0   0   
K4	0   0   0   
K5	0   0   0   
K6	0   0   0   
K7	0   0   0   
K8	0   0   0   
K9	0   0   0   
K10	0   0   0   
K11	2   2   2   
K12	0   0   0   
K13	0   0   0   
K14	2   2   2   
K15	1   1   1   
; # transit time of resource

param C:= 
K1 900
K2 900
K3 900
K4 900
K5 900
K6 1500
K7 1500
K8 4500
K9 4500
K10 5500
K11 5500
K12 5500
K13 5500
K14 5500
K15 5500
; #  water capacity of resource k

param S:= 
F1 10
F2 9
F3 9
; # max number of resources that can fly at front f in the same time slot

param D:= 

[*,*,F1 ]:  K1    K2    K3    K4    K5    K6    K7    K8    K9    K10   K11   K12   K13   K14   K15   :=
1           1.55  1.55  1.55  1.55  1.55  1.55  1.55  1.24  1.24  0.93  0.93  0.93  0.93  0.93  0.93  
2           1.55  1.55  1.55  1.55  1.55  1.55  1.55  1.24  1.24  0.93  0.93  0.93  0.93  0.93  0.93  
3           1.55  1.55  1.55  1.55  1.55  1.55  1.55  1.24  1.24  0.93  0.93  0.93  0.93  0.93  0.93  
4           1.55  1.55  1.55  1.55  1.55  1.55  1.55  1.24  1.24  0.93  0.93  0.93  0.93  0.93  0.93  
5           1.55  1.55  1.55  1.55  1.55  1.55  1.55  1.24  1.24  0.93  0.93  0.93  0.93  0.93  0.93  
6           1.55  1.55  1.55  1.55  1.55  1.55  1.55  1.24  1.24  0.93  0.93  0.93  0.93  0.93  0.93  
7           1.55  1.55  1.55  1.55  1.55  1.55  1.55  1.24  1.24  0.93  0.93  0.93  0.93  0.93  0.93  
8           1.55  1.55  1.55  1.55  1.55  1.55  1.55  1.24  1.24  0.93  0.93  0.93  0.93  0.93  0.93  
9           1.55  1.55  1.55  1.55  1.55  1.55  1.55  1.24  1.24  0.93  0.93  0.93  0.93  0.93  0.93  
10          1.55  1.55  1.55  1.55  1.55  1.55  1.55  1.24  1.24  0.93  0.93  0.93  0.93  0.93  0.93  
11          1.55  1.55  1.55  1.55  1.55  1.55  1.55  1.24  1.24  0.93  0.93  0.93  0.93  0.93  0.93  
12          1.55  1.55  1.55  1.55  1.55  1.55  1.55  1.24  1.24  0.93  0.93  0.93  0.93  0.93  0.93  
13          1.55  1.55  1.55  1.55  1.55  1.55  1.55  1.24  1.24  0.93  0.93  0.93  0.93  0.93  0.93  
14          1.55  1.55  1.55  1.55  1.55  1.55  1.55  1.24  1.24  0.93  0.93  0.93  0.93  0.93  0.93  
15          1.55  1.55  1.55  1.55  1.55  1.55  1.55  1.24  1.24  0.93  0.93  0.93  0.93  0.93  0.93  
16          1.55  1.55  1.55  1.55  1.55  1.55  1.55  1.24  1.24  0.93  0.93  0.93  0.93  0.93  0.93  
17          1.55  1.55  1.55  1.55  1.55  1.55  1.55  1.24  1.24  0.93  0.93  0.93  0.93  0.93  0.93  
18          1.55  1.55  1.55  1.55  1.55  1.55  1.55  1.24  1.24  0.93  0.93  0.93  0.93  0.93  0.93  
19          1.55  1.55  1.55  1.55  1.55  1.55  1.55  1.24  1.24  0.93  0.93  0.93  0.93  0.93  0.93  
20          1.55  1.55  1.55  1.55  1.55  1.55  1.55  1.24  1.24  0.93  0.93  0.93  0.93  0.93  0.93  
21          1.55  1.55  1.55  1.55  1.55  1.55  1.55  1.24  1.24  0.93  0.93  0.93  0.93  0.93  0.93  
22          1.55  1.55  1.55  1.55  1.55  1.55  1.55  1.24  1.24  0.93  0.93  0.93  0.93  0.93  0.93  
23          1.55  1.55  1.55  1.55  1.55  1.55  1.55  1.24  1.24  0.93  0.93  0.93  0.93  0.93  0.93  
24          1.55  1.55  1.55  1.55  1.55  1.55  1.55  1.24  1.24  0.93  0.93  0.93  0.93  0.93  0.93  
25          1.48  1.48  1.48  1.48  1.48  1.48  1.48  1.18  1.18  0.88  0.88  0.88  0.88  0.88  0.88  
26          1.48  1.48  1.48  1.48  1.48  1.48  1.48  1.18  1.18  0.88  0.88  0.88  0.88  0.88  0.88  
27          1.48  1.48  1.48  1.48  1.48  1.48  1.48  1.18  1.18  0.88  0.88  0.88  0.88  0.88  0.88  
28          1.48  1.48  1.48  1.48  1.48  1.48  1.48  1.18  1.18  0.88  0.88  0.88  0.88  0.88  0.88  
29          1.48  1.48  1.48  1.48  1.48  1.48  1.48  1.18  1.18  0.88  0.88  0.88  0.88  0.88  0.88  
30          1.48  1.48  1.48  1.48  1.48  1.48  1.48  1.18  1.18  0.88  0.88  0.88  0.88  0.88  0.88  
31          1.48  1.48  1.48  1.48  1.48  1.48  1.48  1.18  1.18  0.88  0.88  0.88  0.88  0.88  0.88  
32          1.48  1.48  1.48  1.48  1.48  1.48  1.48  1.18  1.18  0.88  0.88  0.88  0.88  0.88  0.88  
33          1.48  1.48  1.48  1.48  1.48  1.48  1.48  1.18  1.18  0.88  0.88  0.88  0.88  0.88  0.88  
34          1.55  1.55  1.55  1.55  1.55  1.55  1.55  1.24  1.24  0.93  0.93  0.93  0.93  0.93  0.93  
35          1.55  1.55  1.55  1.55  1.55  1.55  1.55  1.24  1.24  0.93  0.93  0.93  0.93  0.93  0.93  
36          1.55  1.55  1.55  1.55  1.55  1.55  1.55  1.24  1.24  0.93  0.93  0.93  0.93  0.93  0.93  
37          1.55  1.55  1.55  1.55  1.55  1.55  1.55  1.24  1.24  0.93  0.93  0.93  0.93  0.93  0.93  
38          1.55  1.55  1.55  1.55  1.55  1.55  1.55  1.24  1.24  0.93  0.93  0.93  0.93  0.93  0.93  
39          1.55  1.55  1.55  1.55  1.55  1.55  1.55  1.24  1.24  0.93  0.93  0.93  0.93  0.93  0.93  
40          1.55  1.55  1.55  1.55  1.55  1.55  1.55  1.24  1.24  0.93  0.93  0.93  0.93  0.93  0.93  
41          1.55  1.55  1.55  1.55  1.55  1.55  1.55  1.24  1.24  0.93  0.93  0.93  0.93  0.93  0.93  
42          1.55  1.55  1.55  1.55  1.55  1.55  1.55  1.24  1.24  0.93  0.93  0.93  0.93  0.93  0.93  
43          1.55  1.55  1.55  1.55  1.55  1.55  1.55  1.24  1.24  0.93  0.93  0.93  0.93  0.93  0.93  
44          1.55  1.55  1.55  1.55  1.55  1.55  1.55  1.24  1.24  0.93  0.93  0.93  0.93  0.93  0.93  
45          1.55  1.55  1.55  1.55  1.55  1.55  1.55  1.24  1.24  0.93  0.93  0.93  0.93  0.93  0.93  

[*,*,F2 ]:  K1    K2    K3    K4    K5    K6    K7    K8    K9    K10   K11   K12   K13   K14   K15   :=
1           1.85  1.85  1.85  1.85  1.85  1.85  1.85  1.48  1.48  1.11  1.11  1.11  1.11  1.11  1.11  
2           1.85  1.85  1.85  1.85  1.85  1.85  1.85  1.48  1.48  1.11  1.11  1.11  1.11  1.11  1.11  
3           1.85  1.85  1.85  1.85  1.85  1.85  1.85  1.48  1.48  1.11  1.11  1.11  1.11  1.11  1.11  
4           1.85  1.85  1.85  1.85  1.85  1.85  1.85  1.48  1.48  1.11  1.11  1.11  1.11  1.11  1.11  
5           1.85  1.85  1.85  1.85  1.85  1.85  1.85  1.48  1.48  1.11  1.11  1.11  1.11  1.11  1.11  
6           1.85  1.85  1.85  1.85  1.85  1.85  1.85  1.48  1.48  1.11  1.11  1.11  1.11  1.11  1.11  
7           1.85  1.85  1.85  1.85  1.85  1.85  1.85  1.48  1.48  1.11  1.11  1.11  1.11  1.11  1.11  
8           1.85  1.85  1.85  1.85  1.85  1.85  1.85  1.48  1.48  1.11  1.11  1.11  1.11  1.11  1.11  
9           1.85  1.85  1.85  1.85  1.85  1.85  1.85  1.48  1.48  1.11  1.11  1.11  1.11  1.11  1.11  
10          1.85  1.85  1.85  1.85  1.85  1.85  1.85  1.48  1.48  1.11  1.11  1.11  1.11  1.11  1.11  
11          1.85  1.85  1.85  1.85  1.85  1.85  1.85  1.48  1.48  1.11  1.11  1.11  1.11  1.11  1.11  
12          1.85  1.85  1.85  1.85  1.85  1.85  1.85  1.48  1.48  1.11  1.11  1.11  1.11  1.11  1.11  
13          1.85  1.85  1.85  1.85  1.85  1.85  1.85  1.48  1.48  1.11  1.11  1.11  1.11  1.11  1.11  
14          1.85  1.85  1.85  1.85  1.85  1.85  1.85  1.48  1.48  1.11  1.11  1.11  1.11  1.11  1.11  
15          1.85  1.85  1.85  1.85  1.85  1.85  1.85  1.48  1.48  1.11  1.11  1.11  1.11  1.11  1.11  
16          1.85  1.85  1.85  1.85  1.85  1.85  1.85  1.48  1.48  1.11  1.11  1.11  1.11  1.11  1.11  
17          1.85  1.85  1.85  1.85  1.85  1.85  1.85  1.48  1.48  1.11  1.11  1.11  1.11  1.11  1.11  
18          1.85  1.85  1.85  1.85  1.85  1.85  1.85  1.48  1.48  1.11  1.11  1.11  1.11  1.11  1.11  
19          1.85  1.85  1.85  1.85  1.85  1.85  1.85  1.48  1.48  1.11  1.11  1.11  1.11  1.11  1.11  
20          1.85  1.85  1.85  1.85  1.85  1.85  1.85  1.48  1.48  1.11  1.11  1.11  1.11  1.11  1.11  
21          1.85  1.85  1.85  1.85  1.85  1.85  1.85  1.48  1.48  1.11  1.11  1.11  1.11  1.11  1.11  
22          1.85  1.85  1.85  1.85  1.85  1.85  1.85  1.48  1.48  1.11  1.11  1.11  1.11  1.11  1.11  
23          1.85  1.85  1.85  1.85  1.85  1.85  1.85  1.48  1.48  1.11  1.11  1.11  1.11  1.11  1.11  
24          1.85  1.85  1.85  1.85  1.85  1.85  1.85  1.48  1.48  1.11  1.11  1.11  1.11  1.11  1.11  
25          1.76  1.76  1.76  1.76  1.76  1.76  1.76  1.40  1.40  1.05  1.05  1.05  1.05  1.05  1.05  
26          1.76  1.76  1.76  1.76  1.76  1.76  1.76  1.40  1.40  1.05  1.05  1.05  1.05  1.05  1.05  
27          1.76  1.76  1.76  1.76  1.76  1.76  1.76  1.40  1.40  1.05  1.05  1.05  1.05  1.05  1.05  
28          1.76  1.76  1.76  1.76  1.76  1.76  1.76  1.40  1.40  1.05  1.05  1.05  1.05  1.05  1.05  
29          1.76  1.76  1.76  1.76  1.76  1.76  1.76  1.40  1.40  1.05  1.05  1.05  1.05  1.05  1.05  
30          1.76  1.76  1.76  1.76  1.76  1.76  1.76  1.40  1.40  1.05  1.05  1.05  1.05  1.05  1.05  
31          1.76  1.76  1.76  1.76  1.76  1.76  1.76  1.40  1.40  1.05  1.05  1.05  1.05  1.05  1.05  
32          1.76  1.76  1.76  1.76  1.76  1.76  1.76  1.40  1.40  1.05  1.05  1.05  1.05  1.05  1.05  
33          1.76  1.76  1.76  1.76  1.76  1.76  1.76  1.40  1.40  1.05  1.05  1.05  1.05  1.05  1.05  
34          1.85  1.85  1.85  1.85  1.85  1.85  1.85  1.48  1.48  1.11  1.11  1.11  1.11  1.11  1.11  
35          1.85  1.85  1.85  1.85  1.85  1.85  1.85  1.48  1.48  1.11  1.11  1.11  1.11  1.11  1.11  
36          1.85  1.85  1.85  1.85  1.85  1.85  1.85  1.48  1.48  1.11  1.11  1.11  1.11  1.11  1.11  
37          1.85  1.85  1.85  1.85  1.85  1.85  1.85  1.48  1.48  1.11  1.11  1.11  1.11  1.11  1.11  
38          1.85  1.85  1.85  1.85  1.85  1.85  1.85  1.48  1.48  1.11  1.11  1.11  1.11  1.11  1.11  
39          1.85  1.85  1.85  1.85  1.85  1.85  1.85  1.48  1.48  1.11  1.11  1.11  1.11  1.11  1.11  
40          1.85  1.85  1.85  1.85  1.85  1.85  1.85  1.48  1.48  1.11  1.11  1.11  1.11  1.11  1.11  
41          1.85  1.85  1.85  1.85  1.85  1.85  1.85  1.48  1.48  1.11  1.11  1.11  1.11  1.11  1.11  
42          1.85  1.85  1.85  1.85  1.85  1.85  1.85  1.48  1.48  1.11  1.11  1.11  1.11  1.11  1.11  
43          1.85  1.85  1.85  1.85  1.85  1.85  1.85  1.48  1.48  1.11  1.11  1.11  1.11  1.11  1.11  
44          1.85  1.85  1.85  1.85  1.85  1.85  1.85  1.48  1.48  1.11  1.11  1.11  1.11  1.11  1.11  
45          1.85  1.85  1.85  1.85  1.85  1.85  1.85  1.48  1.48  1.11  1.11  1.11  1.11  1.11  1.11  

[*,*,F3 ]:  K1    K2    K3    K4    K5    K6    K7    K8    K9    K10   K11   K12   K13   K14   K15   :=
1           1.70  1.70  1.70  1.70  1.70  1.70  1.70  1.36  1.36  1.02  1.02  1.02  1.02  1.02  1.02  
2           1.70  1.70  1.70  1.70  1.70  1.70  1.70  1.36  1.36  1.02  1.02  1.02  1.02  1.02  1.02  
3           1.70  1.70  1.70  1.70  1.70  1.70  1.70  1.36  1.36  1.02  1.02  1.02  1.02  1.02  1.02  
4           1.70  1.70  1.70  1.70  1.70  1.70  1.70  1.36  1.36  1.02  1.02  1.02  1.02  1.02  1.02  
5           1.70  1.70  1.70  1.70  1.70  1.70  1.70  1.36  1.36  1.02  1.02  1.02  1.02  1.02  1.02  
6           1.70  1.70  1.70  1.70  1.70  1.70  1.70  1.36  1.36  1.02  1.02  1.02  1.02  1.02  1.02  
7           1.70  1.70  1.70  1.70  1.70  1.70  1.70  1.36  1.36  1.02  1.02  1.02  1.02  1.02  1.02  
8           1.70  1.70  1.70  1.70  1.70  1.70  1.70  1.36  1.36  1.02  1.02  1.02  1.02  1.02  1.02  
9           1.70  1.70  1.70  1.70  1.70  1.70  1.70  1.36  1.36  1.02  1.02  1.02  1.02  1.02  1.02  
10          1.70  1.70  1.70  1.70  1.70  1.70  1.70  1.36  1.36  1.02  1.02  1.02  1.02  1.02  1.02  
11          1.70  1.70  1.70  1.70  1.70  1.70  1.70  1.36  1.36  1.02  1.02  1.02  1.02  1.02  1.02  
12          1.70  1.70  1.70  1.70  1.70  1.70  1.70  1.36  1.36  1.02  1.02  1.02  1.02  1.02  1.02  
13          1.70  1.70  1.70  1.70  1.70  1.70  1.70  1.36  1.36  1.02  1.02  1.02  1.02  1.02  1.02  
14          1.70  1.70  1.70  1.70  1.70  1.70  1.70  1.36  1.36  1.02  1.02  1.02  1.02  1.02  1.02  
15          1.70  1.70  1.70  1.70  1.70  1.70  1.70  1.36  1.36  1.02  1.02  1.02  1.02  1.02  1.02  
16          1.70  1.70  1.70  1.70  1.70  1.70  1.70  1.36  1.36  1.02  1.02  1.02  1.02  1.02  1.02  
17          1.70  1.70  1.70  1.70  1.70  1.70  1.70  1.36  1.36  1.02  1.02  1.02  1.02  1.02  1.02  
18          1.70  1.70  1.70  1.70  1.70  1.70  1.70  1.36  1.36  1.02  1.02  1.02  1.02  1.02  1.02  
19          1.70  1.70  1.70  1.70  1.70  1.70  1.70  1.36  1.36  1.02  1.02  1.02  1.02  1.02  1.02  
20          1.70  1.70  1.70  1.70  1.70  1.70  1.70  1.36  1.36  1.02  1.02  1.02  1.02  1.02  1.02  
21          1.70  1.70  1.70  1.70  1.70  1.70  1.70  1.36  1.36  1.02  1.02  1.02  1.02  1.02  1.02  
22          1.70  1.70  1.70  1.70  1.70  1.70  1.70  1.36  1.36  1.02  1.02  1.02  1.02  1.02  1.02  
23          1.70  1.70  1.70  1.70  1.70  1.70  1.70  1.36  1.36  1.02  1.02  1.02  1.02  1.02  1.02  
24          1.70  1.70  1.70  1.70  1.70  1.70  1.70  1.36  1.36  1.02  1.02  1.02  1.02  1.02  1.02  
25          1.62  1.62  1.62  1.62  1.62  1.62  1.62  1.29  1.29  0.97  0.97  0.97  0.97  0.97  0.97  
26          1.62  1.62  1.62  1.62  1.62  1.62  1.62  1.29  1.29  0.97  0.97  0.97  0.97  0.97  0.97  
27          1.62  1.62  1.62  1.62  1.62  1.62  1.62  1.29  1.29  0.97  0.97  0.97  0.97  0.97  0.97  
28          1.62  1.62  1.62  1.62  1.62  1.62  1.62  1.29  1.29  0.97  0.97  0.97  0.97  0.97  0.97  
29          1.62  1.62  1.62  1.62  1.62  1.62  1.62  1.29  1.29  0.97  0.97  0.97  0.97  0.97  0.97  
30          1.62  1.62  1.62  1.62  1.62  1.62  1.62  1.29  1.29  0.97  0.97  0.97  0.97  0.97  0.97  
31          1.62  1.62  1.62  1.62  1.62  1.62  1.62  1.29  1.29  0.97  0.97  0.97  0.97  0.97  0.97  
32          1.62  1.62  1.62  1.62  1.62  1.62  1.62  1.29  1.29  0.97  0.97  0.97  0.97  0.97  0.97  
33          1.62  1.62  1.62  1.62  1.62  1.62  1.62  1.29  1.29  0.97  0.97  0.97  0.97  0.97  0.97  
34          1.70  1.70  1.70  1.70  1.70  1.70  1.70  1.36  1.36  1.02  1.02  1.02  1.02  1.02  1.02  
35          1.70  1.70  1.70  1.70  1.70  1.70  1.70  1.36  1.36  1.02  1.02  1.02  1.02  1.02  1.02  
36          1.70  1.70  1.70  1.70  1.70  1.70  1.70  1.36  1.36  1.02  1.02  1.02  1.02  1.02  1.02  
37          1.70  1.70  1.70  1.70  1.70  1.70  1.70  1.36  1.36  1.02  1.02  1.02  1.02  1.02  1.02  
38          1.70  1.70  1.70  1.70  1.70  1.70  1.70  1.36  1.36  1.02  1.02  1.02  1.02  1.02  1.02  
39          1.70  1.70  1.70  1.70  1.70  1.70  1.70  1.36  1.36  1.02  1.02  1.02  1.02  1.02  1.02  
40          1.70  1.70  1.70  1.70  1.70  1.70  1.70  1.36  1.36  1.02  1.02  1.02  1.02  1.02  1.02  
41          1.70  1.70  1.70  1.70  1.70  1.70  1.70  1.36  1.36  1.02  1.02  1.02  1.02  1.02  1.02  
42          1.70  1.70  1.70  1.70  1.70  1.70  1.70  1.36  1.36  1.02  1.02  1.02  1.02  1.02  1.02  
43          1.70  1.70  1.70  1.70  1.70  1.70  1.70  1.36  1.36  1.02  1.02  1.02  1.02  1.02  1.02  
44          1.70  1.70  1.70  1.70  1.70  1.70  1.70  1.36  1.36  1.02  1.02  1.02  1.02  1.02  1.02  
45          1.70  1.70  1.70  1.70  1.70  1.70  1.70  1.36  1.36  1.02  1.02  1.02  1.02  1.02  1.02  
; # downloads resource k can do at front f in time t if intermediate time slot

param E:= 

[*,*,F1 ]:  K1    K2    K3    K4    K5    K6    K7    K8    K9    K10   K11   K12   K13   K14   K15   :=
1           0.12  0.71  0.20  0.45  0.54  0.61  0.16  0.19  0.05  0.28  0.28  0.30  0.05  0.46  0.25  
2           0.12  0.71  0.20  0.45  0.54  0.61  0.16  0.19  0.05  0.28  0.28  0.30  0.05  0.46  0.25  
3           0.12  0.71  0.20  0.45  0.54  0.61  0.16  0.19  0.05  0.28  0.28  0.30  0.05  0.46  0.25  
4           0.12  0.71  0.20  0.45  0.54  0.61  0.16  0.19  0.05  0.28  0.28  0.30  0.05  0.46  0.25  
5           0.12  0.71  0.20  0.45  0.54  0.61  0.16  0.19  0.05  0.28  0.28  0.30  0.05  0.46  0.25  
6           0.12  0.71  0.20  0.45  0.54  0.61  0.16  0.19  0.05  0.28  0.28  0.30  0.05  0.46  0.25  
7           0.12  0.71  0.20  0.45  0.54  0.61  0.16  0.19  0.05  0.28  0.28  0.30  0.05  0.46  0.25  
8           0.12  0.71  0.20  0.45  0.54  0.61  0.16  0.19  0.05  0.28  0.28  0.30  0.05  0.46  0.25  
9           0.12  0.71  0.20  0.45  0.54  0.61  0.16  0.19  0.05  0.28  0.28  0.30  0.05  0.46  0.25  
10          0.12  0.71  0.20  0.45  0.54  0.61  0.16  0.19  0.05  0.28  0.28  0.30  0.05  0.46  0.25  
11          0.12  0.71  0.20  0.45  0.54  0.61  0.16  0.19  0.05  0.28  0.28  0.30  0.05  0.46  0.25  
12          0.12  0.71  0.20  0.45  0.54  0.61  0.16  0.19  0.05  0.28  0.28  0.30  0.05  0.46  0.25  
13          0.12  0.71  0.20  0.45  0.54  0.61  0.16  0.19  0.05  0.28  0.28  0.30  0.05  0.46  0.25  
14          0.12  0.71  0.20  0.45  0.54  0.61  0.16  0.19  0.05  0.28  0.28  0.30  0.05  0.46  0.25  
15          0.12  0.71  0.20  0.45  0.54  0.61  0.16  0.19  0.05  0.28  0.28  0.30  0.05  0.46  0.25  
16          0.12  0.71  0.20  0.45  0.54  0.61  0.16  0.19  0.05  0.28  0.28  0.30  0.05  0.46  0.25  
17          0.12  0.71  0.20  0.45  0.54  0.61  0.16  0.19  0.05  0.28  0.28  0.30  0.05  0.46  0.25  
18          0.12  0.71  0.20  0.45  0.54  0.61  0.16  0.19  0.05  0.28  0.28  0.30  0.05  0.46  0.25  
19          0.12  0.71  0.20  0.45  0.54  0.61  0.16  0.19  0.05  0.28  0.28  0.30  0.05  0.46  0.25  
20          0.12  0.71  0.20  0.45  0.54  0.61  0.16  0.19  0.05  0.28  0.28  0.30  0.05  0.46  0.25  
21          0.12  0.71  0.20  0.45  0.54  0.61  0.16  0.19  0.05  0.28  0.28  0.30  0.05  0.46  0.25  
22          0.12  0.71  0.20  0.45  0.54  0.61  0.16  0.19  0.05  0.28  0.28  0.30  0.05  0.46  0.25  
23          0.12  0.71  0.20  0.45  0.54  0.61  0.16  0.19  0.05  0.28  0.28  0.30  0.05  0.46  0.25  
24          0.12  0.71  0.20  0.45  0.54  0.61  0.16  0.19  0.05  0.28  0.28  0.30  0.05  0.46  0.25  
25          0.12  0.68  0.19  0.43  0.52  0.58  0.15  0.18  0.05  0.27  0.27  0.28  0.04  0.43  0.24  
26          0.12  0.68  0.19  0.43  0.52  0.58  0.15  0.18  0.05  0.27  0.27  0.28  0.04  0.43  0.24  
27          0.12  0.68  0.19  0.43  0.52  0.58  0.15  0.18  0.05  0.27  0.27  0.28  0.04  0.43  0.24  
28          0.12  0.68  0.19  0.43  0.52  0.58  0.15  0.18  0.05  0.27  0.27  0.28  0.04  0.43  0.24  
29          0.12  0.68  0.19  0.43  0.52  0.58  0.15  0.18  0.05  0.27  0.27  0.28  0.04  0.43  0.24  
30          0.12  0.68  0.19  0.43  0.52  0.58  0.15  0.18  0.05  0.27  0.27  0.28  0.04  0.43  0.24  
31          0.12  0.68  0.19  0.43  0.52  0.58  0.15  0.18  0.05  0.27  0.27  0.28  0.04  0.43  0.24  
32          0.12  0.68  0.19  0.43  0.52  0.58  0.15  0.18  0.05  0.27  0.27  0.28  0.04  0.43  0.24  
33          0.12  0.68  0.19  0.43  0.52  0.58  0.15  0.18  0.05  0.27  0.27  0.28  0.04  0.43  0.24  
34          0.12  0.71  0.20  0.45  0.54  0.61  0.16  0.19  0.05  0.28  0.28  0.30  0.05  0.46  0.25  
35          0.12  0.71  0.20  0.45  0.54  0.61  0.16  0.19  0.05  0.28  0.28  0.30  0.05  0.46  0.25  
36          0.12  0.71  0.20  0.45  0.54  0.61  0.16  0.19  0.05  0.28  0.28  0.30  0.05  0.46  0.25  
37          0.12  0.71  0.20  0.45  0.54  0.61  0.16  0.19  0.05  0.28  0.28  0.30  0.05  0.46  0.25  
38          0.12  0.71  0.20  0.45  0.54  0.61  0.16  0.19  0.05  0.28  0.28  0.30  0.05  0.46  0.25  
39          0.12  0.71  0.20  0.45  0.54  0.61  0.16  0.19  0.05  0.28  0.28  0.30  0.05  0.46  0.25  
40          0.12  0.71  0.20  0.45  0.54  0.61  0.16  0.19  0.05  0.28  0.28  0.30  0.05  0.46  0.25  
41          0.12  0.71  0.20  0.45  0.54  0.61  0.16  0.19  0.05  0.28  0.28  0.30  0.05  0.46  0.25  
42          0.12  0.71  0.20  0.45  0.54  0.61  0.16  0.19  0.05  0.28  0.28  0.30  0.05  0.46  0.25  
43          0.12  0.71  0.20  0.45  0.54  0.61  0.16  0.19  0.05  0.28  0.28  0.30  0.05  0.46  0.25  
44          0.12  0.71  0.20  0.45  0.54  0.61  0.16  0.19  0.05  0.28  0.28  0.30  0.05  0.46  0.25  
45          0.12  0.71  0.20  0.45  0.54  0.61  0.16  0.19  0.05  0.28  0.28  0.30  0.05  0.46  0.25  

[*,*,F2 ]:  K1    K2    K3    K4    K5    K6    K7    K8    K9    K10   K11   K12   K13   K14   K15   :=
1           0.06  0.83  0.26  0.63  0.72  0.70  0.22  0.21  0.13  0.33  0.40  0.31  0.08  0.50  0.26  
2           0.06  0.83  0.26  0.63  0.72  0.70  0.22  0.21  0.13  0.33  0.40  0.31  0.08  0.50  0.26  
3           0.06  0.83  0.26  0.63  0.72  0.70  0.22  0.21  0.13  0.33  0.40  0.31  0.08  0.50  0.26  
4           0.06  0.83  0.26  0.63  0.72  0.70  0.22  0.21  0.13  0.33  0.40  0.31  0.08  0.50  0.26  
5           0.06  0.83  0.26  0.63  0.72  0.70  0.22  0.21  0.13  0.33  0.40  0.31  0.08  0.50  0.26  
6           0.06  0.83  0.26  0.63  0.72  0.70  0.22  0.21  0.13  0.33  0.40  0.31  0.08  0.50  0.26  
7           0.06  0.83  0.26  0.63  0.72  0.70  0.22  0.21  0.13  0.33  0.40  0.31  0.08  0.50  0.26  
8           0.06  0.83  0.26  0.63  0.72  0.70  0.22  0.21  0.13  0.33  0.40  0.31  0.08  0.50  0.26  
9           0.06  0.83  0.26  0.63  0.72  0.70  0.22  0.21  0.13  0.33  0.40  0.31  0.08  0.50  0.26  
10          0.06  0.83  0.26  0.63  0.72  0.70  0.22  0.21  0.13  0.33  0.40  0.31  0.08  0.50  0.26  
11          0.06  0.83  0.26  0.63  0.72  0.70  0.22  0.21  0.13  0.33  0.40  0.31  0.08  0.50  0.26  
12          0.06  0.83  0.26  0.63  0.72  0.70  0.22  0.21  0.13  0.33  0.40  0.31  0.08  0.50  0.26  
13          0.06  0.83  0.26  0.63  0.72  0.70  0.22  0.21  0.13  0.33  0.40  0.31  0.08  0.50  0.26  
14          0.06  0.83  0.26  0.63  0.72  0.70  0.22  0.21  0.13  0.33  0.40  0.31  0.08  0.50  0.26  
15          0.06  0.83  0.26  0.63  0.72  0.70  0.22  0.21  0.13  0.33  0.40  0.31  0.08  0.50  0.26  
16          0.06  0.83  0.26  0.63  0.72  0.70  0.22  0.21  0.13  0.33  0.40  0.31  0.08  0.50  0.26  
17          0.06  0.83  0.26  0.63  0.72  0.70  0.22  0.21  0.13  0.33  0.40  0.31  0.08  0.50  0.26  
18          0.06  0.83  0.26  0.63  0.72  0.70  0.22  0.21  0.13  0.33  0.40  0.31  0.08  0.50  0.26  
19          0.06  0.83  0.26  0.63  0.72  0.70  0.22  0.21  0.13  0.33  0.40  0.31  0.08  0.50  0.26  
20          0.06  0.83  0.26  0.63  0.72  0.70  0.22  0.21  0.13  0.33  0.40  0.31  0.08  0.50  0.26  
21          0.06  0.83  0.26  0.63  0.72  0.70  0.22  0.21  0.13  0.33  0.40  0.31  0.08  0.50  0.26  
22          0.06  0.83  0.26  0.63  0.72  0.70  0.22  0.21  0.13  0.33  0.40  0.31  0.08  0.50  0.26  
23          0.06  0.83  0.26  0.63  0.72  0.70  0.22  0.21  0.13  0.33  0.40  0.31  0.08  0.50  0.26  
24          0.06  0.83  0.26  0.63  0.72  0.70  0.22  0.21  0.13  0.33  0.40  0.31  0.08  0.50  0.26  
25          0.05  0.79  0.25  0.60  0.69  0.67  0.21  0.20  0.13  0.32  0.38  0.30  0.07  0.47  0.24  
26          0.05  0.79  0.25  0.60  0.69  0.67  0.21  0.20  0.13  0.32  0.38  0.30  0.07  0.47  0.24  
27          0.05  0.79  0.25  0.60  0.69  0.67  0.21  0.20  0.13  0.32  0.38  0.30  0.07  0.47  0.24  
28          0.05  0.79  0.25  0.60  0.69  0.67  0.21  0.20  0.13  0.32  0.38  0.30  0.07  0.47  0.24  
29          0.05  0.79  0.25  0.60  0.69  0.67  0.21  0.20  0.13  0.32  0.38  0.30  0.07  0.47  0.24  
30          0.05  0.79  0.25  0.60  0.69  0.67  0.21  0.20  0.13  0.32  0.38  0.30  0.07  0.47  0.24  
31          0.05  0.79  0.25  0.60  0.69  0.67  0.21  0.20  0.13  0.32  0.38  0.30  0.07  0.47  0.24  
32          0.05  0.79  0.25  0.60  0.69  0.67  0.21  0.20  0.13  0.32  0.38  0.30  0.07  0.47  0.24  
33          0.05  0.79  0.25  0.60  0.69  0.67  0.21  0.20  0.13  0.32  0.38  0.30  0.07  0.47  0.24  
34          0.06  0.83  0.26  0.63  0.72  0.70  0.22  0.21  0.13  0.33  0.40  0.31  0.08  0.50  0.26  
35          0.06  0.83  0.26  0.63  0.72  0.70  0.22  0.21  0.13  0.33  0.40  0.31  0.08  0.50  0.26  
36          0.06  0.83  0.26  0.63  0.72  0.70  0.22  0.21  0.13  0.33  0.40  0.31  0.08  0.50  0.26  
37          0.06  0.83  0.26  0.63  0.72  0.70  0.22  0.21  0.13  0.33  0.40  0.31  0.08  0.50  0.26  
38          0.06  0.83  0.26  0.63  0.72  0.70  0.22  0.21  0.13  0.33  0.40  0.31  0.08  0.50  0.26  
39          0.06  0.83  0.26  0.63  0.72  0.70  0.22  0.21  0.13  0.33  0.40  0.31  0.08  0.50  0.26  
40          0.06  0.83  0.26  0.63  0.72  0.70  0.22  0.21  0.13  0.33  0.40  0.31  0.08  0.50  0.26  
41          0.06  0.83  0.26  0.63  0.72  0.70  0.22  0.21  0.13  0.33  0.40  0.31  0.08  0.50  0.26  
42          0.06  0.83  0.26  0.63  0.72  0.70  0.22  0.21  0.13  0.33  0.40  0.31  0.08  0.50  0.26  
43          0.06  0.83  0.26  0.63  0.72  0.70  0.22  0.21  0.13  0.33  0.40  0.31  0.08  0.50  0.26  
44          0.06  0.83  0.26  0.63  0.72  0.70  0.22  0.21  0.13  0.33  0.40  0.31  0.08  0.50  0.26  
45          0.06  0.83  0.26  0.63  0.72  0.70  0.22  0.21  0.13  0.33  0.40  0.31  0.08  0.50  0.26  

[*,*,F3 ]:  K1    K2    K3    K4    K5    K6    K7    K8    K9    K10   K11   K12   K13   K14   K15   :=
1           0.20  0.61  0.29  0.61  0.65  0.61  0.05  0.19  0.07  0.32  0.39  0.29  0.05  0.48  0.28  
2           0.20  0.61  0.29  0.61  0.65  0.61  0.05  0.19  0.07  0.32  0.39  0.29  0.05  0.48  0.28  
3           0.20  0.61  0.29  0.61  0.65  0.61  0.05  0.19  0.07  0.32  0.39  0.29  0.05  0.48  0.28  
4           0.20  0.61  0.29  0.61  0.65  0.61  0.05  0.19  0.07  0.32  0.39  0.29  0.05  0.48  0.28  
5           0.20  0.61  0.29  0.61  0.65  0.61  0.05  0.19  0.07  0.32  0.39  0.29  0.05  0.48  0.28  
6           0.20  0.61  0.29  0.61  0.65  0.61  0.05  0.19  0.07  0.32  0.39  0.29  0.05  0.48  0.28  
7           0.20  0.61  0.29  0.61  0.65  0.61  0.05  0.19  0.07  0.32  0.39  0.29  0.05  0.48  0.28  
8           0.20  0.61  0.29  0.61  0.65  0.61  0.05  0.19  0.07  0.32  0.39  0.29  0.05  0.48  0.28  
9           0.20  0.61  0.29  0.61  0.65  0.61  0.05  0.19  0.07  0.32  0.39  0.29  0.05  0.48  0.28  
10          0.20  0.61  0.29  0.61  0.65  0.61  0.05  0.19  0.07  0.32  0.39  0.29  0.05  0.48  0.28  
11          0.20  0.61  0.29  0.61  0.65  0.61  0.05  0.19  0.07  0.32  0.39  0.29  0.05  0.48  0.28  
12          0.20  0.61  0.29  0.61  0.65  0.61  0.05  0.19  0.07  0.32  0.39  0.29  0.05  0.48  0.28  
13          0.20  0.61  0.29  0.61  0.65  0.61  0.05  0.19  0.07  0.32  0.39  0.29  0.05  0.48  0.28  
14          0.20  0.61  0.29  0.61  0.65  0.61  0.05  0.19  0.07  0.32  0.39  0.29  0.05  0.48  0.28  
15          0.20  0.61  0.29  0.61  0.65  0.61  0.05  0.19  0.07  0.32  0.39  0.29  0.05  0.48  0.28  
16          0.20  0.61  0.29  0.61  0.65  0.61  0.05  0.19  0.07  0.32  0.39  0.29  0.05  0.48  0.28  
17          0.20  0.61  0.29  0.61  0.65  0.61  0.05  0.19  0.07  0.32  0.39  0.29  0.05  0.48  0.28  
18          0.20  0.61  0.29  0.61  0.65  0.61  0.05  0.19  0.07  0.32  0.39  0.29  0.05  0.48  0.28  
19          0.20  0.61  0.29  0.61  0.65  0.61  0.05  0.19  0.07  0.32  0.39  0.29  0.05  0.48  0.28  
20          0.20  0.61  0.29  0.61  0.65  0.61  0.05  0.19  0.07  0.32  0.39  0.29  0.05  0.48  0.28  
21          0.20  0.61  0.29  0.61  0.65  0.61  0.05  0.19  0.07  0.32  0.39  0.29  0.05  0.48  0.28  
22          0.20  0.61  0.29  0.61  0.65  0.61  0.05  0.19  0.07  0.32  0.39  0.29  0.05  0.48  0.28  
23          0.20  0.61  0.29  0.61  0.65  0.61  0.05  0.19  0.07  0.32  0.39  0.29  0.05  0.48  0.28  
24          0.20  0.61  0.29  0.61  0.65  0.61  0.05  0.19  0.07  0.32  0.39  0.29  0.05  0.48  0.28  
25          0.19  0.58  0.28  0.58  0.61  0.58  0.05  0.18  0.06  0.30  0.37  0.27  0.05  0.46  0.26  
26          0.19  0.58  0.28  0.58  0.61  0.58  0.05  0.18  0.06  0.30  0.37  0.27  0.05  0.46  0.26  
27          0.19  0.58  0.28  0.58  0.61  0.58  0.05  0.18  0.06  0.30  0.37  0.27  0.05  0.46  0.26  
28          0.19  0.58  0.28  0.58  0.61  0.58  0.05  0.18  0.06  0.30  0.37  0.27  0.05  0.46  0.26  
29          0.19  0.58  0.28  0.58  0.61  0.58  0.05  0.18  0.06  0.30  0.37  0.27  0.05  0.46  0.26  
30          0.19  0.58  0.28  0.58  0.61  0.58  0.05  0.18  0.06  0.30  0.37  0.27  0.05  0.46  0.26  
31          0.19  0.58  0.28  0.58  0.61  0.58  0.05  0.18  0.06  0.30  0.37  0.27  0.05  0.46  0.26  
32          0.19  0.58  0.28  0.58  0.61  0.58  0.05  0.18  0.06  0.30  0.37  0.27  0.05  0.46  0.26  
33          0.19  0.58  0.28  0.58  0.61  0.58  0.05  0.18  0.06  0.30  0.37  0.27  0.05  0.46  0.26  
34          0.20  0.61  0.29  0.61  0.65  0.61  0.05  0.19  0.07  0.32  0.39  0.29  0.05  0.48  0.28  
35          0.20  0.61  0.29  0.61  0.65  0.61  0.05  0.19  0.07  0.32  0.39  0.29  0.05  0.48  0.28  
36          0.20  0.61  0.29  0.61  0.65  0.61  0.05  0.19  0.07  0.32  0.39  0.29  0.05  0.48  0.28  
37          0.20  0.61  0.29  0.61  0.65  0.61  0.05  0.19  0.07  0.32  0.39  0.29  0.05  0.48  0.28  
38          0.20  0.61  0.29  0.61  0.65  0.61  0.05  0.19  0.07  0.32  0.39  0.29  0.05  0.48  0.28  
39          0.20  0.61  0.29  0.61  0.65  0.61  0.05  0.19  0.07  0.32  0.39  0.29  0.05  0.48  0.28  
40          0.20  0.61  0.29  0.61  0.65  0.61  0.05  0.19  0.07  0.32  0.39  0.29  0.05  0.48  0.28  
41          0.20  0.61  0.29  0.61  0.65  0.61  0.05  0.19  0.07  0.32  0.39  0.29  0.05  0.48  0.28  
42          0.20  0.61  0.29  0.61  0.65  0.61  0.05  0.19  0.07  0.32  0.39  0.29  0.05  0.48  0.28  
43          0.20  0.61  0.29  0.61  0.65  0.61  0.05  0.19  0.07  0.32  0.39  0.29  0.05  0.48  0.28  
44          0.20  0.61  0.29  0.61  0.65  0.61  0.05  0.19  0.07  0.32  0.39  0.29  0.05  0.48  0.28  
45          0.20  0.61  0.29  0.61  0.65  0.61  0.05  0.19  0.07  0.32  0.39  0.29  0.05  0.48  0.28  
; # downloads resource k can do at front f in time t if starting or ending flight

param W: 
	F1        F2        F3        :=
1	1321.04   660.52    660.52    
2	5019.96   2509.98   2509.98   
3	5019.96   2509.98   2509.98   
4	5019.96   2509.98   2509.98   
5	5019.96   2509.98   2509.98   
6	5019.96   2509.98   2509.98   
7	5019.96   2509.98   2509.98   
8	5019.96   2509.98   2509.98   
9	5019.96   2509.98   2509.98   
10	5019.96   2509.98   2509.98   
11	5019.96   2509.98   2509.98   
12	5019.96   2509.98   2509.98   
13	5019.96   2509.98   2509.98   
14	5019.96   2509.98   2509.98   
15	5019.96   2509.98   2509.98   
16	5019.96   2509.98   2509.98   
17	5019.96   2509.98   2509.98   
18	5019.96   2509.98   2509.98   
19	5812.59   2906.29   2906.29   
20	5812.59   2906.29   2906.29   
21	5812.59   2906.29   2906.29   
22	5812.59   2906.29   2906.29   
23	5812.59   2906.29   2906.29   
24	5812.59   2906.29   2906.29   
25	5812.59   2906.29   2906.29   
26	5812.59   2906.29   2906.29   
27	5812.59   2906.29   2906.29   
28	5812.59   2906.29   2906.29   
29	5812.59   2906.29   2906.29   
30	5812.59   2906.29   2906.29   
31	5812.59   2906.29   2906.29   
32	5812.59   2906.29   2906.29   
33	5812.59   2906.29   2906.29   
34	5812.59   2906.29   2906.29   
35	5019.96   2509.98   2509.98   
36	5019.96   2509.98   2509.98   
37	5019.96   2509.98   2509.98   
38	5019.96   2509.98   2509.98   
39	5019.96   2509.98   2509.98   
40	5019.96   2509.98   2509.98   
41	5019.96   2509.98   2509.98   
42	5019.96   2509.98   2509.98   
43	5019.96   2509.98   2509.98   
44	5019.96   2509.98   2509.98   
45	1321.04   660.52    660.52    
; # water needed at front f in time slot t

param M := 100000000; 

param a1:= 10000000;

param a2:= 100;

param a3:= 0.0001;
